3828320
117,206,41,188,177,129,61,89,149,88,107,144,143,90,210,18,151,70,71,30,65,60,131,23,55,40,99,98,102,221,189,64,153,199,200,121,160,74,101,106,36,132,26,39,34,150,25,21,93,168,27,116,209,95,77,178,4,161,162,193,219,119,163,78,79,179,152,59,112,225,135,81,208,224,47,67,195,204,15,14,46,124,37,222,190,123,122,180,125,194,1,84,28,213,58,57,185,186,215,218,76,223,8,10,220,3,170,169,157,127,201,17,156,49,54,35,66,68,72,217,148,33,20,141,145,108,111,214,136,158,9,173,96,80,0,182,6,228,154,12,75,83,11,105,212,171,103,128,86,82,146,2,137,181,174,69,184,115,100,183,191,155,63,43,22,118,130,197,113,147,91,42,48,134,31,139,73,62,176,109,16,133,13,110,205,172,120,104,140,53,52,227,87,32,19,216,175,211,138,51,92,229,44,202,196,167,164,207,50,126,97,198,7,29,165,5,226,56,45,203,114,24,166,94,142,192,85,187,159,38
